Mack/Bortfeldt(2008)
Bin-Packing-Problem
BP-RG/SBSBPP/SSSCSP
Testcase-ID	3
Problem-ID	52
no_item_types	15
no_items	1374
CONTAINER_DATA (l,w,h)	485	131	118
ITEMS_DATA:
Type	x	y	z	no_items
1	85	84	72	93
2	103	76	64	99
3	95	70	62	94
4	75	75	63	94
5	86	76	38	99
6	98	52	44	87
7	71	48	47	87
8	111	49	26	88
9	90	43	33	91
10	60	51	41	91
11	74	42	40	88
12	61	48	39	97
13	73	37	23	82
14	48	36	31	89
15	49	25	21	95
